200 75498892
65 81 107 86 5 15 189 105 118 31 115 48 163 109 78 103 51 137 196 165 172 46 70 79 0 67 89
124 55 32 192 80 24 87 75 186 10 193 101 39 159 93 69 14 119 150 162 6 127 183 198 138 128
176 4 100 125 182 130 9 63 141 73 20 84 123 42 134 154 188 168 47 187 23 102 181 144 122
114 121 26 36 66 35 58 53 18 59 98 77 184 71 126 120 185 153 171 155 94 113 104 95 27 148
156 197 177 117 30 158 99 83 11 54 112 45 136 146 111 167 3 191 41 90 92 157 160 7 195 178
152 68 166 50 140 88 179 62 173 12 147 13 40 142 57 19 106 21 131 22 74 37 149 96 44 56 64
110 82 49 38 190 174 97 180 52 34 29 43 139 2 132 25 1 28 164 61 129 145 161 91 33 16 143 85
194 116 175 72 8 108 17 199 135 60 133 76 169 170 151
